==> MAXTIME              = 3600
==> OUTPUTLOG            = 1
==> CUTFREQ              = 2
FICO Xpress v8.5.9, solve started 23:37:50, Jun 8, 2019
Maximizing MILP Seating model
Original problem has:
       230 rows          300 cols         7440 elements       300 globals
Presolved problem has:
       103 rows          204 cols         2431 elements       198 globals
LP relaxation tightened
Will try to keep branch and bound tree memory usage below 7.2GB
 *** Heuristic solution found:    22.000000      Time: 0 ***
Starting concurrent solve with dual

 Concurrent-Solve,   0s
            Dual        
    objective   dual inf
 D  102.00000   .0000000
------- optimal --------
Concurrent statistics:
      Dual: 34 simplex iterations, 0.00s
Optimal solution found
 
   Its         Obj Value      S   Ninf  Nneg   Sum Dual Inf  Time
    34        102.000000      D      0     0        .000000     0
Dual solved problem
  34 simplex iterations in 0s

Final objective                         : 1.020000000000000e+02
  Max primal violation      (abs / rel) : 1.110e-16 / 9.869e-17
  Max dual violation        (abs / rel) :       0.0 /       0.0
  Max complementarity viol. (abs / rel) :       0.0 /       0.0
All values within tolerances

Starting root cutting & heuristics
 
 Its Type    BestSoln    BestBound   Sols    Add    Del     Gap     GInf   Time
   1  K     22.000000   102.000000      1     99      0   78.43%      29      0
   2  K     22.000000   102.000000      1    111     81   78.43%      43      0
   3  K     22.000000   102.000000      1     92    101   78.43%      48      0
b           28.000000   102.000000      2                 72.55%       0      0
   4  K     28.000000   102.000000      2     87     94   72.55%      35      0
   5  K     28.000000   102.000000      2    100     83   72.55%      49      0
   6  K     28.000000   102.000000      2     93     97   72.55%      47      0
   7  K     28.000000   102.000000      2     89     88   72.55%      58      0
b           35.000000   102.000000      3                 65.69%       0      0
   8  K     35.000000   102.000000      3     81     91   65.69%      37      0
   9  K     35.000000   102.000000      3     95     87   65.69%      48      0
  10  K     35.000000   102.000000      3     97     89   65.69%      58      0
  11  K     35.000000   102.000000      3     83     86   65.69%      67      0
  12  K     35.000000   102.000000      3     93     82   65.69%      72      0
  13  K     35.000000   102.000000      3     87     85   65.69%      76      0
  14  K     35.000000   102.000000      3      2     83   65.69%      39      0
  15  K     35.000000   102.000000      3      1      7   65.69%      39      0
  16  K     35.000000   102.000000      3      1     13   65.69%      39      0
  17  K     35.000000   102.000000      3     96      8   65.69%      58      0
  18  K     35.000000   102.000000      3      2     91   65.69%      39      0
b           47.000000   102.000000      4                 53.92%       0      0
  19  K     47.000000   102.000000      4     93     14   53.92%      52      0
  20  K     47.000000   102.000000      4     99    150   53.92%      59      0
  21  G     47.000000   102.000000      4     39     31   53.92%      41      0
  22  G     47.000000   102.000000      4     70    110   53.92%      55      0
Heuristic search started
Heuristic search stopped
 
Cuts in the matrix         : 39
Cut elements in the matrix : 1106
 
Starting tree search.
Deterministic mode with up to 4 running threads and up to 8 tasks.
 
    Node     BestSoln    BestBound   Sols Active  Depth     Gap     GInf   Time
       1    47.000000   102.000000      4      2      1   53.92%      45      0
       2    47.000000   102.000000      4      2      2   53.92%      46      0
       3    47.000000   102.000000      4      2      2   53.92%      34      0
       4    47.000000   102.000000      4      2      3   53.92%      45      0
       5    47.000000   102.000000      4      2      3   53.92%      32      0
       6    47.000000   102.000000      4      2      4   53.92%      46      0
       7    47.000000   102.000000      4      5      4   53.92%      18      0
       8    47.000000   102.000000      4      8      3   53.92%      37      0
       9    47.000000   102.000000      4      8      4   53.92%      51      0
      10    47.000000   102.000000      4      8      4   53.92%      45      0
      22    47.000000   102.000000      4     14     12   53.92%      48      0
      37    47.000000   102.000000      4     14     15   53.92%      58      0
      48    47.000000   102.000000      4     14     22   53.92%      17      0
      58    47.000000   102.000000      4     39      1   53.92%       1      0
      69    47.000000   102.000000      4     39      8   53.92%      54      0
      80    47.000000   102.000000      4     39     10   53.92%      49      0
      94    47.000000   102.000000      4     39     14   53.92%      37      0
     106    47.000000   102.000000      4     39     24   53.92%      15      0
     211    47.000000   102.000000      4     55     20   53.92%      12      1
B&B tree size: 4.6MB total
 
    Node     BestSoln    BestBound   Sols Active  Depth     Gap     GInf   Time
a    288    54.000000   102.000000      5     55     20   47.06%       0      1
*    305    58.000000   102.000000      6     55     24   43.14%       0      1
     315    58.000000   102.000000      6     55     16   43.14%      39      1
     417    58.000000   102.000000      6     73     16   43.14%      37      1
     520    58.000000   102.000000      6     85     18   43.14%      45      1
a    582    60.000000   102.000000      7     85     23   41.18%       0      1
     621    60.000000   101.045641      7    154     18   40.62%      40      1
     726    60.000000   101.045641      7    194     22   40.62%      48      2
     829    60.000000   101.045641      7    194     10   40.62%      20      2
     929    60.000000   101.045641      7    272     17   40.62%      37      2
    1031    60.000000   101.045641      7    295     20   40.62%      45      2
    1135    60.000000   101.045641      7    295     16   40.62%      44      2
    1239    60.000000   101.045641      7    334     18   40.62%      36      2
    1345    60.000000   101.045641      7    334     18   40.62%      40      3
    1447    60.000000   101.045641      7    334     17   40.62%      37      3
    1547    60.000000   101.045641      7    334     14   40.62%      44      3
    1661    60.000000   101.045641      7    334     17   40.62%      39      3
    1764    60.000000   101.045641      7    377     19   40.62%      29      3
    1868    60.000000   101.045641      7    377     14   40.62%      55      3
    1975    60.000000   101.045641      7    418     21   40.62%      37      4
B&B tree size: 19MB total
 
    Node     BestSoln    BestBound   Sols Active  Depth     Gap     GInf   Time
    2080    60.000000   101.045641      7    418     12   40.62%      54      4
    2184    60.000000   101.045641      7    418     16   40.62%      26      4
    2285    60.000000    96.211111      7    612     16   37.64%      49      4
    2386    60.000000    96.211111      7    612     16   37.64%      34      4
    2490    60.000000    96.211111      7    612     18   37.64%      35      4
    2590    60.000000    92.441113      7    765     16   35.09%      29      5
    2691    60.000000    92.441113      7    765     17   35.09%      36      5
    2796    60.000000    92.441113      7    765     17   35.09%      29      5
    2896    60.000000    92.441113      7    765     18   35.09%      25      5
    2996    60.000000    92.441113      7    765     21   35.09%      28      5
    3101    60.000000    92.441113      7    765     17   35.09%      31      5
    3203    60.000000    92.441113      7    774     18   35.09%      31      6
    3311    60.000000    90.419563      7    896     18   33.64%      25      6
    3415    60.000000    90.419563      7    896     20   33.64%      23      6
    3520    60.000000    90.419563      7    896     20   33.64%      28      6
    3628    60.000000    90.419563      7    896     20   33.64%      44      6
    3731    60.000000    90.419563      7    896     11   33.64%      31      6
    3837    60.000000    90.419563      7    896     18   33.64%      36      7
    3938    60.000000    90.419563      7    896     12   33.64%      33      7
    4043    60.000000    90.419563      7    959     14   33.64%      53      7
B&B tree size: 29MB total
 
    Node     BestSoln    BestBound   Sols Active  Depth     Gap     GInf   Time
    4147    60.000000    90.419563      7    998     16   33.64%      34      7
    4253    60.000000    90.419563      7    998     12   33.64%      38      7
    4357    60.000000    90.419563      7    998     12   33.64%      32      7
    4460    60.000000    90.419563      7   1002     10   33.64%      35      8
    4564    60.000000    90.419563      7   1081     17   33.64%      55      8
    4676    60.000000    90.419563      7   1088     16   33.64%      40      8
    4781    60.000000    90.419563      7   1088     20   33.64%      36      8
    4882    60.000000    85.397755      7   1153     23   29.74%      21      8
    4983    60.000000    85.397755      7   1153     12   29.74%      44      8
    5093    60.000000    85.397755      7   1153     16   29.74%      25      8
    5198    60.000000    85.397755      7   1179     15   29.74%      30      9
    5306    60.000000    85.397755      7   1179     12   29.74%      21      9
    5409    60.000000    85.397755      7   1221     20   29.74%      40      9
    5512    60.000000    85.397755      7   1221     16   29.74%      19      9
    5615    60.000000    85.397755      7   1234     16   29.74%      23      9
    5719    60.000000    85.397755      7   1234     11   29.74%      36      9
    5819    60.000000    85.397755      7   1234     17   29.74%      48     10
    5925    60.000000    85.397755      7   1234     20   29.74%      39     10
    6025    60.000000    85.397755      7   1249     18   29.74%      37     10
    6130    60.000000    85.397755      7   1249     20   29.74%      43     10
B&B tree size: 35MB total
 
    Node     BestSoln    BestBound   Sols Active  Depth     Gap     GInf   Time
    6234    60.000000    82.264189      7   1318     21   27.06%      44     11
    6337    60.000000    82.264189      7   1320     15   27.06%      34     11
    6440    60.000000    82.264189      7   1320     18   27.06%      28     11
    6548    60.000000    80.256883      7   1335     18   25.24%      45     11
    6655    60.000000    80.256883      7   1338     15   25.24%      39     11
    6757    60.000000    79.671915      7   1341     18   24.69%      27     12
    6857    60.000000    79.671915      7   1339     18   24.69%      51     12
    6967    60.000000    79.671915      7   1339     18   24.69%      28     12
    7070    60.000000    79.671915      7   1339     16   24.69%      35     12
    7175    60.000000    79.671915      7   1343     18   24.69%      31     12
    7277    60.000000    78.629924      7   1352     19   23.69%      44     12
    7388    60.000000    78.629924      7   1352     16   23.69%      47     12
    7492    60.000000    78.629924      7   1352     20   23.69%      40     13
    7602    60.000000    78.629924      7   1352     18   23.69%      41     13
    7702    60.000000    78.629924      7   1346     13   23.69%      22     13
    7808    60.000000    78.629924      7   1354     14   23.69%      36     13
    7915    60.000000    78.018599      7   1348     21   23.10%      40     13
    8023    60.000000    78.018599      7   1348     23   23.10%      35     13
    8129    60.000000    77.490380      7   1359     20   22.57%      22     13
    8235    60.000000    77.490380      7   1359     23   22.57%      29     13
B&B tree size: 39MB total
 
    Node     BestSoln    BestBound   Sols Active  Depth     Gap     GInf   Time
    8351    60.000000    77.362135      7   1360     26   22.44%      20     14
    8454    60.000000    77.286496      7   1353     16   22.37%      46     14
    8555    60.000000    77.286496      7   1345     18   22.37%      23     14
    8655    60.000000    77.053920      7   1352     14   22.13%      28     14
    8761    60.000000    77.053920      7   1352     19   22.13%      18     14
    8867    60.000000    77.053920      7   1352     12   22.13%      39     14
    8972    60.000000    77.053920      7   1344     22   22.13%      21     14
    9076    60.000000    76.172271      7   1378     22   21.23%      19     15
    9180    60.000000    76.172271      7   1373     24   21.23%      21     15
    9283    60.000000    76.172271      7   1373     22   21.23%      37     15
    9388    60.000000    76.172271      7   1368     12   21.23%      32     15
    9489    60.000000    76.172271      7   1368     19   21.23%      36     15
    9589    60.000000    76.172271      7   1365     15   21.23%      36     15
    9689    60.000000    76.000000      7   1357     11   21.05%      30     16
    9795    60.000000    76.000000      7   1349     15   21.05%      38     16
    9905    60.000000    76.000000      7   1358     16   21.05%      26     16
   10007    60.000000    76.000000      7   1358     13   21.05%      46     16
   11007    60.000000    74.993299      7   1280     20   19.99%      43     17
   12010    60.000000    73.804330      7   1222     18   18.70%      35     19
   13010    60.000000    73.009786      7   1101     14   17.82%      43     20
B&B tree size: 36MB total
 
    Node     BestSoln    BestBound   Sols Active  Depth     Gap     GInf   Time
   14022    60.000000    70.836185      7    962     15   15.30%      45     21
   15023    60.000000    69.058824      7    800     19   13.12%      39     22
   16024    60.000000    69.000000      7    549     12   13.04%      27     23
   17024    60.000000    63.585185      7    169     15    5.64%      35     24
 *** Search completed ***     Time:    24 Nodes:      17271
Number of integer feasible solutions found is 7
Best integer solution found is    60.000000
Best bound is    60.000000
Uncrunching matrix
